100 10
716 859
386 709
67 486
750 183
777 427
444 625
313 121
321 366
200 257
401 402
719 216
485 415
826 439
156 422
323 700
828 688
641 406
362 842
259 734
678 727
397 651
465 766
475 360
340 381
533 115
563 391
496 663
825 668
759 722
678 462
151 367
448 392
556 793
319 283
530 799
337 656
508 362
222 721
222 245
554 315
254 273
42 275
68 302
764 288
531 340
389 452
766 818
468 793
410 356
575 859
493 468
719 641
276 543
197 619
391 309
318 751
371 254
820 402
751 564
327 219
505 759
622 821
414 423
285 219
531 713
497 31
285 740
687 214
505 468
277 276
187 112
753 216
410 169
542 855
414 561
406 573
67 531
569 214
476 164
306 398
276 186
666 527
140 544
686 475
180 521
360 143
463 901
643 451
180 292
641 445
162 516
576 254
604 214
525 200
264 285
718 855
149 109
628 594
103 544
465 885
